7 9 0 7 1 13 8 10 4 9 6 8 9 4 3 4 5 7 2 12
2 11 5 10 3 10 4 7 8 7 1 6 6 10 0 13 7 4 9 10
4 9 7 4 8 10 5 6 1 13 9 14 6 4 3 12 2 14 0 13
8 10 4 5 9 13 1 3 7 7 5 10 3 7 0 4 2 4 6 3
9 11 1 10 0 6 6 3 3 4 7 9 5 6 8 11 2 7 4 12
1 8 8 10 2 10 9 7 5 12 6 3 4 13 3 10 7 4 0 3
4 14 8 10 9 8 7 14 5 13 0 7 3 8 6 11 1 9 2 14
1 6 8 4 3 7 7 4 5 15 4 8 2 8 0 13 6 13 9 3
5 9 4 15 3 10 8 6 1 13 0 12 6 10 2 5 7 5 9 12
6 3 3 13 7 3 4 10 0 12 1 13 5 11 9 4 8 4 2 4
